Route #1: 30 48 47 36 69 71 60 70 20 37 5 29
Route #2: 51 33 63 23 56 41 42 64 43 1 73
Route #3: 17 12 72 39 9 25 55 31 10 58
Route #4: 26 38 65 66 11 7 67
Route #5: 16 49 24 18 50 44 3 32 40
Route #6: 35 53 14 59 19 8 46 34
Route #7: 68 2 62 28 22 61 21 74 6
Route #8: 75 4 45 27 15 57 13 54 52
Cost 761